Minimize
  - 26 y_0 - 22 y_1 - 27 y_2 - 18 y_3 - 29 y_4 - 26 y_5 - 19 y_7 - 13 y_8
   - 25 y_9 + 67 x_0_1 + 74 x_0_8 + 14 x_1_2 + 40 x_1_8 + 85 x_2_3
   + 56 x_2_4 + 62 x_3_4 + 87 x_3_5 + 10 x_4_9 + 90 x_5_7 + 38 x_6_7
   + 41 x_7_9 + 26 x_8_9 + 49 x_9_6 + 49 x_9_6 + 49 x_9_6 + 49 x_9_6
   + 49 x_9_6 + 49 x_9_6 + 49 x_9_6 + 49 x_9_6 + 49 x_9_6 + 49 x_9_6
   + 49 x_9_6 + 49 x_9_6 + 49 x_9_6 + 49 x_9_6 + 49 x_9_6 + 49 x_9_6
   + 49 x_9_6 + 49 x_9_6 + 49 x_9_6 + 49 x_9_6 + 49 x_9_6 + 49 x_9_6
   + 49 x_9_6 + 49 x_9_6 + 49 x_9_6 + 49 x_9_6 + 49 x_9_6 + 49 x_9_6
   + 49 x_9_6 + 49 x_9_6 + 49 x_9_6 + 49 x_9_6 + 49 x_9_6 + 49 x_9_6
   + 49 x_9_6 + 49 x_9_6 + 49 x_9_6 + 49 x_9_6 + 49 x_9_6 + 49 x_9_6
   + 49 x_9_6 + 49 x_9_6 + 49 x_9_6 + 49 x_9_6 + 49 x_9_6 + 49 x_9_6
   + 49 x_9_6 + 49 x_9_6 + 49 x_9_6 + 49 x_9_6 + 49 x_9_6 + 49 x_9_6
   + 49 x_9_6 + 49 x_9_6 + 49 x_9_6 + 49 x_9_6 + 49 x_9_6 + 49 x_9_6
   + 49 x_9_6 + 49 x_9_6 + 49 x_9_6 + 49 x_9_6 + 49 x_9_6 + 49 x_9_6
   + 49 x_9_6 + 49 x_9_6 + 49 x_9_6 + 49 x_9_6 + 49 x_9_6 + 49 x_9_6
   + 49 x_9_6 + 49 x_9_6 + 49 x_9_6 + 49 x_9_6 + 49 x_9_6 + 49 x_9_6
   + 49 x_9_6 + 49 x_9_6 + 49 x_9_6 + 49 x_9_6 + 49 x_9_6 + 49 x_9_6
   + 49 x_9_6 + 49 x_9_6 + 49 x_9_6 + 49 x_9_6 + 49 x_9_6 + 49 x_9_6
   + 49 x_9_6 + 49 x_9_6 + 49 x_9_6 + 49 x_9_6 + 49 x_9_6 + 49 x_9_6
   + 49 x_9_6 + 49 x_9_6 + 49 x_9_6 + 49 x_9_6 + 49 x_9_6 + 49 x_9_6
   + 49 x_9_6 + 49 x_9_6 + 49 x_9_6 + 49 x_9_6 + 49 x_9_6 + 49 x_9_6
   + 49 x_9_6 + 49 x_9_6 + 49 x_9_6 + 49 x_9_6 + 49 x_9_6 + 49 x_9_6
   + 49 x_9_6 + 49 x_9_6 + 49 x_9_6 + 49 x_9_6 + 49 x_9_6 + 49 x_9_6
   + 49 x_9_6 + 49 x_9_6 + 49 x_9_6 + 49 x_9_6 + 49 x_9_6 + 49 x_9_6
   + 49 x_9_6 + 49 x_9_6 + 49 x_9_6 + 205 Constant
Subject To
 c_0: y_0 = 1
 c_1_0: y_0 >= 1
 c_1_1: y_1 >= 1
 c_1_2: y_2 >= 1
 c_1_3: y_3 >= 1
 c_1_4: y_4 >= 1
 c_1_5: y_5 >= 1
 c_1_6: y_6 >= 1
 c_1_7: y_7 >= 1
 c_1_8: y_8 >= 1
 c_1_9: y_9 >= 1
 c_2_0: - 2 y_0 + x_0_1 + x_0_8 = 0
 c_2_1: - 2 y_1 + x_0_1 + x_1_2 + x_1_8 = 0
 c_2_2: - 2 y_2 + x_1_2 + x_2_3 + x_2_4 = 0
 c_2_3: - 2 y_3 + x_2_3 + x_3_4 + x_3_5 = 0
 c_2_4: - 2 y_4 + x_2_4 + x_3_4 + x_4_9 = 0
 c_2_5: - 2 y_5 + x_3_5 + x_5_7 = 0
 c_2_6: - 2 y_6 + x_6_7 + 127 x_9_6 = 0
 c_2_7: - 2 y_7 + x_5_7 + x_6_7 + x_7_9 = 0
 c_2_8: - 2 y_8 + x_0_8 + x_1_8 + x_8_9 = 0
 c_2_9: - 2 y_9 + x_4_9 + x_7_9 + x_8_9 + 127 x_9_6 = 0
Bounds
 Constant = 1
Binaries
 y_0 y_1 y_2 y_3 y_4 y_5 y_6 y_7 y_8 y_9 x_0_1 x_0_8 x_1_2 x_1_8 x_2_3
 x_2_4 x_3_4 x_3_5 x_4_9 x_5_7 x_6_7 x_7_9 x_8_9 x_9_6 x_9_6 x_9_6 x_9_6
 x_9_6 x_9_6 x_9_6 x_9_6 x_9_6 x_9_6 x_9_6 x_9_6 x_9_6 x_9_6 x_9_6 x_9_6
 x_9_6 x_9_6 x_9_6 x_9_6 x_9_6 x_9_6 x_9_6 x_9_6 x_9_6 x_9_6 x_9_6 x_9_6
 x_9_6 x_9_6 x_9_6 x_9_6 x_9_6 x_9_6 x_9_6 x_9_6 x_9_6 x_9_6 x_9_6 x_9_6
 x_9_6 x_9_6 x_9_6 x_9_6 x_9_6 x_9_6 x_9_6 x_9_6 x_9_6 x_9_6 x_9_6 x_9_6
 x_9_6 x_9_6 x_9_6 x_9_6 x_9_6 x_9_6 x_9_6 x_9_6 x_9_6 x_9_6 x_9_6 x_9_6
 x_9_6 x_9_6 x_9_6 x_9_6 x_9_6 x_9_6 x_9_6 x_9_6 x_9_6 x_9_6 x_9_6 x_9_6
 x_9_6 x_9_6 x_9_6 x_9_6 x_9_6 x_9_6 x_9_6 x_9_6 x_9_6 x_9_6 x_9_6 x_9_6
 x_9_6 x_9_6 x_9_6 x_9_6 x_9_6 x_9_6 x_9_6 x_9_6 x_9_6 x_9_6 x_9_6 x_9_6
 x_9_6 x_9_6 x_9_6 x_9_6 x_9_6 x_9_6 x_9_6 x_9_6 x_9_6 x_9_6 x_9_6 x_9_6
 x_9_6 x_9_6 x_9_6 x_9_6 x_9_6 x_9_6 x_9_6 x_9_6 x_9_6 x_9_6 x_9_6 x_9_6
 x_9_6 x_9_6 x_9_6
End
